sing20220612.12
TTAA  62111 48698
99007 28450 07502 00098 27642 06008 92788 22642 30002
85515 18025 24006 70153 09226 36004 50587 05506 08010
40759 14724 07518 30970 29917 08025 25097 40328 09019
20245 53335 08519 15423 69345 12025 10656 82940 07035
88999
77999=
TTCC  62115 48698
70862 70556 07014 50059 70357 09053
88959 84135 07041
66427 08568 41700=
TTDD  6211/ 48698
11959 84135 22926 81156 33899 80747 44869 76957 55839 76350
66796 70959 77764 68758 88600 76148 99569 75156 11549 70760
22508 70956 33464 70956 44427 64759
21212 11959 07041 22914 09539 33847 07547 44714 08016 55642
05014 66612 08518 77571 10023 88537 09541 99427 08568=
